NAME: cum190.tsp
TYPE: TSP
COMMENT: User-generated TSP file
DIMENSION: 950
EDGE_WEIGHT_TYPE: EUC_2D
NODE_COORD_SECTION
1 453.0 696.0
2 802.0 438.0
3 2.0 243.0
4 161.0 514.0
5 158.0 413.0
6 769.0 686.0
7 282.0 67.0
8 917.0 902.0
9 592.0 425.0
10 360.0 946.0
11 455.0 129.0
12 572.0 622.0
13 796.0 130.0
14 388.0 463.0
15 764.0 635.0
16 528.0 133.0
17 276.0 867.0
18 523.0 858.0
19 800.0 196.0
20 805.0 540.0
21 575.0 678.0
22 403.0 716.0
23 38.0 916.0
24 85.0 473.0
25 513.0 446.0
26 778.0 596.0
27 196.0 884.0
28 505.0 664.0
29 163.0 925.0
30 392.0 601.0
31 289.0 705.0
32 39.0 511.0
33 85.0 111.0
34 451.0 777.0
35 520.0 521.0
36 697.0 749.0
37 525.0 602.0
38 46.0 795.0
39 895.0 807.0
40 869.0 482.0
41 198.0 871.0
42 729.0 825.0
43 533.0 861.0
44 804.0 928.0
45 404.0 227.0
46 934.0 634.0
47 513.0 378.0
48 293.0 841.0
49 456.0 463.0
50 651.0 559.0
51 488.0 865.0
52 433.0 668.0
53 302.0 365.0
54 470.0 545.0
55 373.0 595.0
56 704.0 125.0
57 477.0 919.0
58 676.0 635.0
59 592.0 836.0
60 212.0 246.0
61 199.0 116.0
62 638.0 62.0
63 349.0 351.0
64 128.0 750.0
65 295.0 872.0
66 31.0 887.0
67 96.0 823.0
68 695.0 581.0
69 307.0 715.0
70 183.0 344.0
71 81.0 498.0
72 811.0 98.0
73 469.0 343.0
74 862.0 805.0
75 266.0 378.0
76 218.0 545.0
77 535.0 343.0
78 284.0 6.0
79 692.0 548.0
80 155.0 463.0
81 601.0 334.0
82 235.0 591.0
83 557.0 301.0
84 806.0 162.0
85 195.0 502.0
86 88.0 726.0
87 657.0 651.0
88 267.0 2.0
89 563.0 213.0
90 909.0 53.0
91 641.0 694.0
92 714.0 523.0
93 660.0 162.0
94 771.0 616.0
95 347.0 464.0
96 266.0 510.0
97 347.0 12.0
98 780.0 685.0
99 863.0 379.0
100 686.0 92.0
101 915.0 856.0
102 676.0 805.0
103 638.0 760.0
104 32.0 867.0
105 902.0 377.0
106 119.0 161.0
107 879.0 435.0
108 390.0 48.0
109 436.0 136.0
110 24.0 215.0
111 169.0 385.0
112 465.0 862.0
113 808.0 528.0
114 472.0 530.0
115 417.0 259.0
116 47.0 81.0
117 552.0 505.0
118 81.0 159.0
119 636.0 541.0
120 238.0 494.0
121 223.0 324.0
122 271.0 804.0
123 337.0 586.0
124 875.0 442.0
125 429.0 296.0
126 638.0 332.0
127 547.0 224.0
128 565.0 864.0
129 363.0 434.0
130 486.0 600.0
131 495.0 712.0
132 327.0 429.0
133 268.0 281.0
134 237.0 430.0
135 947.0 349.0
136 643.0 505.0
137 618.0 277.0
138 389.0 39.0
139 359.0 378.0
140 383.0 166.0
141 335.0 246.0
142 614.0 469.0
143 658.0 937.0
144 780.0 421.0
145 759.0 238.0
146 436.0 639.0
147 219.0 610.0
148 467.0 400.0
149 560.0 216.0
150 150.0 318.0
151 145.0 850.0
152 671.0 329.0
153 299.0 319.0
154 36.0 947.0
155 70.0 32.0
156 654.0 666.0
157 6.0 501.0
158 919.0 58.0
159 807.0 270.0
160 336.0 887.0
161 709.0 419.0
162 668.0 737.0
163 48.0 565.0
164 179.0 930.0
165 906.0 564.0
166 396.0 750.0
167 350.0 257.0
168 303.0 148.0
169 83.0 190.0
170 758.0 784.0
171 919.0 493.0
172 721.0 748.0
173 267.0 866.0
174 796.0 692.0
175 309.0 420.0
176 455.0 369.0
177 719.0 682.0
178 491.0 262.0
179 433.0 768.0
180 664.0 484.0
181 215.0 481.0
182 855.0 495.0
183 724.0 758.0
184 322.0 877.0
185 532.0 930.0
186 425.0 468.0
187 798.0 357.0
188 358.0 427.0
189 888.0 92.0
190 100.0 448.0
191 683.0 253.0
192 787.0 471.0
193 617.0 890.0
194 659.0 911.0
195 145.0 638.0
196 812.0 889.0
197 103.0 208.0
198 545.0 76.0
199 391.0 884.0
200 39.0 114.0
201 190.0 593.0
202 841.0 629.0
203 154.0 597.0
204 700.0 85.0
205 878.0 465.0
206 598.0 510.0
207 225.0 621.0
208 100.0 237.0
209 748.0 163.0
210 647.0 540.0
211 751.0 643.0
212 269.0 905.0
213 487.0 705.0
214 783.0 112.0
215 477.0 837.0
216 429.0 285.0
217 169.0 515.0
218 306.0 486.0
219 479.0 901.0
220 513.0 30.0
221 46.0 159.0
222 656.0 360.0
223 696.0 636.0
224 293.0 418.0
225 180.0 719.0
226 37.0 110.0
227 20.0 940.0
228 828.0 545.0
229 489.0 188.0
230 410.0 353.0
231 663.0 837.0
232 477.0 543.0
233 126.0 807.0
234 149.0 253.0
235 685.0 366.0
236 824.0 569.0
237 646.0 504.0
238 696.0 50.0
239 765.0 679.0
240 244.0 727.0
241 130.0 187.0
242 278.0 326.0
243 708.0 310.0
244 560.0 206.0
245 946.0 119.0
246 612.0 665.0
247 79.0 662.0
248 824.0 145.0
249 439.0 723.0
250 923.0 16.0
251 273.0 307.0
252 841.0 603.0
253 479.0 798.0
254 293.0 240.0
255 17.0 795.0
256 488.0 294.0
257 390.0 202.0
258 447.0 764.0
259 427.0 151.0
260 859.0 715.0
261 98.0 78.0
262 283.0 853.0
263 429.0 795.0
264 826.0 420.0
265 293.0 850.0
266 534.0 345.0
267 171.0 270.0
268 791.0 751.0
269 472.0 186.0
270 335.0 418.0
271 461.0 691.0
272 458.0 238.0
273 282.0 507.0
274 671.0 47.0
275 161.0 190.0
276 717.0 780.0
277 73.0 599.0
278 121.0 884.0
279 382.0 269.0
280 680.0 435.0
281 469.0 945.0
282 635.0 836.0
283 906.0 325.0
284 824.0 33.0
285 240.0 16.0
286 365.0 154.0
287 820.0 867.0
288 950.0 21.0
289 206.0 921.0
290 579.0 625.0
291 569.0 434.0
292 548.0 768.0
293 909.0 692.0
294 728.0 689.0
295 786.0 857.0
296 935.0 40.0
297 32.0 201.0
298 549.0 645.0
299 406.0 590.0
300 214.0 79.0
301 287.0 649.0
302 777.0 71.0
303 646.0 565.0
304 487.0 375.0
305 203.0 876.0
306 143.0 330.0
307 293.0 887.0
308 714.0 809.0
309 505.0 709.0
310 44.0 869.0
311 703.0 867.0
312 262.0 689.0
313 888.0 565.0
314 354.0 30.0
315 678.0 535.0
316 755.0 209.0
317 260.0 377.0
318 777.0 658.0
319 248.0 928.0
320 640.0 844.0
321 829.0 531.0
322 715.0 636.0
323 51.0 299.0
324 145.0 291.0
325 942.0 69.0
326 362.0 195.0
327 359.0 377.0
328 91.0 682.0
329 425.0 206.0
330 246.0 639.0
331 473.0 104.0
332 330.0 524.0
333 94.0 195.0
334 926.0 235.0
335 763.0 315.0
336 665.0 715.0
337 464.0 825.0
338 807.0 401.0
339 712.0 286.0
340 206.0 20.0
341 487.0 669.0
342 185.0 721.0
343 557.0 545.0
344 880.0 212.0
345 830.0 423.0
346 275.0 215.0
347 497.0 293.0
348 575.0 810.0
349 276.0 602.0
350 898.0 277.0
351 464.0 180.0
352 150.0 268.0
353 389.0 183.0
354 229.0 516.0
355 749.0 492.0
356 942.0 616.0
357 293.0 491.0
358 141.0 297.0
359 858.0 120.0
360 675.0 662.0
361 414.0 34.0
362 34.0 13.0
363 703.0 801.0
364 545.0 29.0
365 229.0 565.0
366 854.0 596.0
367 619.0 627.0
368 642.0 288.0
369 911.0 168.0
370 703.0 296.0
371 488.0 445.0
372 831.0 318.0
373 759.0 499.0
374 17.0 203.0
375 418.0 494.0
376 88.0 726.0
377 88.0 626.0
378 117.0 532.0
379 643.0 314.0
380 430.0 345.0
381 287.0 567.0
382 159.0 737.0
383 866.0 127.0
384 133.0 582.0
385 664.0 108.0
386 845.0 544.0
387 26.0 175.0
388 207.0 528.0
389 597.0 348.0
390 849.0 104.0
391 909.0 622.0
392 141.0 42.0
393 716.0 229.0
394 921.0 544.0
395 897.0 625.0
396 686.0 866.0
397 544.0 99.0
398 287.0 652.0
399 306.0 292.0
400 714.0 164.0
401 545.0 544.0
402 701.0 641.0
403 136.0 921.0
404 21.0 70.0
405 843.0 246.0
406 360.0 480.0
407 408.0 930.0
408 517.0 546.0
409 140.0 514.0
410 945.0 532.0
411 1.0 841.0
412 570.0 237.0
413 848.0 824.0
414 776.0 930.0
415 745.0 32.0
416 736.0 336.0
417 38.0 294.0
418 85.0 719.0
419 312.0 789.0
420 914.0 749.0
421 315.0 328.0
422 632.0 287.0
423 526.0 862.0
424 576.0 779.0
425 813.0 786.0
426 415.0 90.0
427 91.0 828.0
428 192.0 667.0
429 769.0 795.0
430 752.0 110.0
431 397.0 333.0
432 416.0 230.0
433 9.0 216.0
434 116.0 156.0
435 305.0 800.0
436 350.0 812.0
437 857.0 199.0
438 41.0 866.0
439 708.0 289.0
440 445.0 645.0
441 426.0 412.0
442 268.0 199.0
443 644.0 681.0
444 681.0 439.0
445 359.0 579.0
446 582.0 756.0
447 625.0 530.0
448 193.0 749.0
449 748.0 157.0
450 211.0 258.0
451 866.0 336.0
452 168.0 604.0
453 319.0 128.0
454 370.0 665.0
455 934.0 645.0
456 371.0 170.0
457 367.0 253.0
458 911.0 450.0
459 875.0 313.0
460 229.0 1.0
461 498.0 105.0
462 63.0 221.0
463 824.0 365.0
464 726.0 788.0
465 359.0 776.0
466 804.0 578.0
467 523.0 936.0
468 404.0 559.0
469 84.0 413.0
470 239.0 596.0
471 661.0 288.0
472 145.0 871.0
473 57.0 109.0
474 49.0 437.0
475 17.0 623.0
476 63.0 19.0
477 176.0 62.0
478 287.0 171.0
479 270.0 1.0
480 476.0 906.0
481 178.0 608.0
482 562.0 744.0
483 857.0 489.0
484 519.0 585.0
485 503.0 631.0
486 474.0 368.0
487 204.0 901.0
488 773.0 29.0
489 859.0 475.0
490 21.0 735.0
491 692.0 524.0
492 809.0 53.0
493 244.0 86.0
494 916.0 855.0
495 128.0 426.0
496 597.0 99.0
497 352.0 581.0
498 290.0 620.0
499 128.0 926.0
500 421.0 152.0
501 686.0 337.0
502 172.0 793.0
503 214.0 777.0
504 148.0 272.0
505 390.0 222.0
506 601.0 459.0
507 861.0 147.0
508 509.0 423.0
509 480.0 407.0
510 303.0 719.0
511 96.0 910.0
512 659.0 205.0
513 666.0 544.0
514 182.0 906.0
515 604.0 920.0
516 412.0 108.0
517 680.0 491.0
518 420.0 664.0
519 85.0 319.0
520 559.0 483.0
521 477.0 44.0
522 166.0 880.0
523 739.0 202.0
524 163.0 385.0
525 169.0 765.0
526 507.0 892.0
527 729.0 896.0
528 761.0 90.0
529 209.0 195.0
530 574.0 145.0
531 359.0 526.0
532 849.0 585.0
533 420.0 319.0
534 612.0 773.0
535 625.0 403.0
536 556.0 505.0
537 376.0 408.0
538 548.0 119.0
539 15.0 334.0
540 54.0 925.0
541 720.0 309.0
542 391.0 772.0
543 624.0 246.0
544 828.0 534.0
545 632.0 423.0
546 281.0 859.0
547 682.0 294.0
548 949.0 200.0
549 353.0 658.0
550 768.0 224.0
551 609.0 156.0
552 89.0 142.0
553 349.0 342.0
554 512.0 831.0
555 164.0 436.0
556 406.0 67.0
557 96.0 641.0
558 769.0 442.0
559 36.0 364.0
560 559.0 361.0
561 196.0 694.0
562 47.0 478.0
563 899.0 101.0
564 713.0 304.0
565 725.0 543.0
566 840.0 594.0
567 237.0 380.0
568 5.0 870.0
569 451.0 653.0
570 700.0 443.0
571 761.0 64.0
572 81.0 353.0
573 788.0 155.0
574 542.0 183.0
575 647.0 45.0
576 86.0 180.0
577 333.0 871.0
578 584.0 714.0
579 861.0 75.0
580 68.0 586.0
581 110.0 249.0
582 136.0 319.0
583 644.0 797.0
584 782.0 522.0
585 431.0 309.0
586 892.0 872.0
587 326.0 172.0
588 463.0 278.0
589 663.0 796.0
590 817.0 627.0
591 518.0 453.0
592 238.0 77.0
593 346.0 293.0
594 648.0 254.0
595 77.0 235.0
596 18.0 474.0
597 299.0 125.0
598 244.0 24.0
599 460.0 888.0
600 24.0 671.0
601 950.0 133.0
602 120.0 122.0
603 886.0 232.0
604 296.0 106.0
605 364.0 377.0
606 891.0 76.0
607 346.0 115.0
608 747.0 529.0
609 257.0 332.0
610 898.0 608.0
611 470.0 617.0
612 828.0 111.0
613 783.0 221.0
614 405.0 869.0
615 444.0 936.0
616 559.0 466.0
617 790.0 928.0
618 861.0 938.0
619 398.0 660.0
620 244.0 289.0
621 797.0 727.0
622 595.0 771.0
623 950.0 947.0
624 113.0 296.0
625 505.0 946.0
626 939.0 943.0
627 573.0 847.0
628 305.0 584.0
629 167.0 273.0
630 248.0 77.0
631 435.0 750.0
632 271.0 412.0
633 790.0 817.0
634 888.0 202.0
635 911.0 587.0
636 931.0 564.0
637 710.0 709.0
638 604.0 293.0
639 928.0 115.0
640 379.0 819.0
641 8.0 251.0
642 393.0 385.0
643 84.0 436.0
644 7.0 912.0
645 479.0 794.0
646 27.0 717.0
647 547.0 168.0
648 292.0 738.0
649 631.0 775.0
650 319.0 46.0
651 222.0 109.0
652 408.0 539.0
653 688.0 593.0
654 743.0 351.0
655 560.0 142.0
656 385.0 38.0
657 700.0 368.0
658 580.0 59.0
659 615.0 260.0
660 741.0 325.0
661 348.0 169.0
662 847.0 363.0
663 857.0 12.0
664 593.0 258.0
665 595.0 748.0
666 491.0 806.0
667 924.0 22.0
668 279.0 412.0
669 119.0 669.0
670 609.0 309.0
671 471.0 395.0
672 393.0 11.0
673 255.0 320.0
674 586.0 937.0
675 828.0 254.0
676 849.0 868.0
677 114.0 531.0
678 466.0 285.0
679 666.0 752.0
680 101.0 798.0
681 767.0 289.0
682 5.0 950.0
683 280.0 687.0
684 777.0 574.0
685 368.0 789.0
686 234.0 174.0
687 808.0 763.0
688 890.0 90.0
689 278.0 481.0
690 407.0 698.0
691 492.0 855.0
692 663.0 632.0
693 516.0 369.0
694 573.0 338.0
695 152.0 281.0
696 231.0 182.0
697 366.0 924.0
698 317.0 721.0
699 63.0 655.0
700 342.0 581.0
701 654.0 302.0
702 226.0 413.0
703 144.0 228.0
704 265.0 208.0
705 55.0 859.0
706 416.0 359.0
707 657.0 366.0
708 29.0 4.0
709 357.0 89.0
710 271.0 131.0
711 131.0 863.0
712 790.0 174.0
713 493.0 14.0
714 728.0 786.0
715 497.0 853.0
716 801.0 852.0
717 708.0 549.0
718 853.0 207.0
719 704.0 160.0
720 191.0 509.0
721 560.0 102.0
722 676.0 323.0
723 534.0 292.0
724 130.0 6.0
725 409.0 658.0
726 894.0 270.0
727 526.0 790.0
728 727.0 4.0
729 284.0 173.0
730 621.0 111.0
731 340.0 340.0
732 192.0 461.0
733 636.0 413.0
734 271.0 880.0
735 698.0 414.0
736 821.0 669.0
737 420.0 859.0
738 815.0 707.0
739 669.0 440.0
740 19.0 347.0
741 498.0 847.0
742 589.0 91.0
743 839.0 224.0
744 648.0 331.0
745 313.0 468.0
746 573.0 599.0
747 623.0 893.0
748 33.0 349.0
749 395.0 199.0
750 263.0 826.0
751 862.0 757.0
752 350.0 933.0
753 453.0 451.0
754 534.0 242.0
755 383.0 110.0
756 201.0 452.0
757 718.0 795.0
758 349.0 607.0
759 571.0 527.0
760 609.0 271.0
761 116.0 594.0
762 433.0 577.0
763 909.0 741.0
764 229.0 109.0
765 137.0 197.0
766 759.0 869.0
767 214.0 672.0
768 249.0 375.0
769 291.0 582.0
770 336.0 27.0
771 650.0 628.0
772 504.0 833.0
773 241.0 92.0
774 586.0 928.0
775 23.0 846.0
776 740.0 84.0
777 816.0 853.0
778 7.0 934.0
779 310.0 856.0
780 568.0 670.0
781 180.0 943.0
782 71.0 474.0
783 269.0 57.0
784 657.0 904.0
785 530.0 266.0
786 81.0 218.0
787 86.0 180.0
788 105.0 96.0
789 796.0 754.0
790 913.0 764.0
791 357.0 673.0
792 423.0 837.0
793 920.0 131.0
794 84.0 378.0
795 581.0 859.0
796 84.0 789.0
797 151.0 455.0
798 832.0 889.0
799 406.0 530.0
800 856.0 456.0
801 386.0 695.0
802 340.0 837.0
803 848.0 648.0
804 494.0 571.0
805 83.0 813.0
806 586.0 790.0
807 238.0 454.0
808 557.0 384.0
809 266.0 836.0
810 48.0 360.0
811 539.0 152.0
812 168.0 429.0
813 698.0 809.0
814 129.0 514.0
815 249.0 356.0
816 347.0 425.0
817 244.0 37.0
818 681.0 35.0
819 675.0 620.0
820 403.0 930.0
821 103.0 725.0
822 78.0 88.0
823 809.0 200.0
824 827.0 935.0
825 185.0 320.0
826 515.0 614.0
827 44.0 560.0
828 899.0 99.0
829 285.0 252.0
830 212.0 87.0
831 30.0 720.0
832 911.0 653.0
833 583.0 543.0
834 585.0 66.0
835 725.0 512.0
836 664.0 17.0
837 784.0 741.0
838 28.0 839.0
839 205.0 82.0
840 90.0 156.0
841 107.0 175.0
842 534.0 746.0
843 820.0 324.0
844 256.0 481.0
845 767.0 769.0
846 654.0 333.0
847 264.0 187.0
848 393.0 288.0
849 185.0 834.0
850 632.0 15.0
851 711.0 443.0
852 481.0 639.0
853 721.0 758.0
854 907.0 200.0
855 253.0 893.0
856 891.0 318.0
857 163.0 118.0
858 888.0 696.0
859 763.0 88.0
860 667.0 255.0
861 496.0 333.0
862 665.0 160.0
863 271.0 128.0
864 105.0 379.0
865 741.0 878.0
866 857.0 463.0
867 457.0 577.0
868 465.0 714.0
869 903.0 307.0
870 256.0 255.0
871 111.0 703.0
872 915.0 872.0
873 386.0 489.0
874 918.0 629.0
875 511.0 356.0
876 120.0 790.0
877 838.0 906.0
878 665.0 90.0
879 717.0 474.0
880 896.0 752.0
881 330.0 190.0
882 351.0 235.0
883 543.0 144.0
884 158.0 144.0
885 610.0 881.0
886 728.0 663.0
887 629.0 420.0
888 24.0 261.0
889 872.0 100.0
890 703.0 865.0
891 305.0 409.0
892 636.0 127.0
893 442.0 245.0
894 367.0 361.0
895 837.0 156.0
896 29.0 570.0
897 765.0 3.0
898 921.0 602.0
899 761.0 194.0
900 213.0 722.0
901 849.0 677.0
902 828.0 859.0
903 610.0 815.0
904 665.0 646.0
905 238.0 23.0
906 946.0 164.0
907 853.0 865.0
908 265.0 819.0
909 528.0 564.0
910 745.0 14.0
911 268.0 245.0
912 774.0 325.0
913 917.0 599.0
914 864.0 18.0
915 414.0 165.0
916 278.0 549.0
917 308.0 682.0
918 265.0 235.0
919 484.0 223.0
920 913.0 265.0
921 384.0 38.0
922 458.0 129.0
923 616.0 228.0
924 610.0 180.0
925 555.0 237.0
926 66.0 745.0
927 648.0 723.0
928 667.0 942.0
929 51.0 418.0
930 925.0 536.0
931 667.0 762.0
932 617.0 590.0
933 622.0 537.0
934 55.0 196.0
935 208.0 636.0
936 661.0 408.0
937 299.0 453.0
938 408.0 64.0
939 920.0 886.0
940 950.0 541.0
941 882.0 320.0
942 95.0 738.0
943 565.0 296.0
944 456.0 846.0
945 937.0 149.0
946 131.0 523.0
947 713.0 594.0
948 476.0 775.0
949 433.0 219.0
950 131.0 447.0
EOF

